p cnf 10 21
10 7 -6 0
-10 6 3 0
10 -6 2 0
-10 -5 -3 0
-10 2 1 0
-9 -8 6 0
-9 7 2 0
9 5 3 0
-8 -7 -6 0
8 -7 -1 0
8 6 -5 0
8 5 1 0
7 -6 5 0
7 -6 -3 0
-7 -5 3 0
7 -4 -3 0
-7 4 3 0
-7 -2 1 0
-6 5 -4 0
-6 -5 1 0
4 2 1 0
